(declare-fun temp3934_1 () (_ BitVec 64))
(declare-fun var138796 () (_ BitVec 64))
(declare-fun ARGNAME_pad_NAMEEND_LEN () (_ BitVec 64))
(declare-fun temp3934_2 () (_ BitVec 64))
(declare-fun temp3934_3 () (_ BitVec 64))
(declare-fun var138797 () (_ BitVec 64))
(declare-fun k!0 () (_ BitVec 1))
(declare-fun k!1 () Bool)
(declare-fun temp3934_4 () (_ BitVec 64))
(declare-fun ARGNAME_input_NAMEEND_DIM () (_ BitVec 64))
(declare-fun var138809 () (_ BitVec 64))
(declare-fun var138810 () (_ BitVec 64))
(declare-fun temp3934_5 () (_ BitVec 64))
(declare-fun temp3934_6 () (_ BitVec 64))
(declare-fun var197425 () (_ BitVec 64))
(declare-fun temp3934_7 () (_ BitVec 64))
(declare-fun var197427 () (_ BitVec 64))
(declare-fun temp3934_8 () (_ BitVec 64))
(declare-fun temp3934_9 () (_ BitVec 64))
(declare-fun var197483 () (_ BitVec 64))
(declare-fun var197485 () (_ BitVec 64))
(declare-fun var197486 () (_ BitVec 64))
(declare-fun temp3934_10 () (_ BitVec 64))
(declare-fun var394824 () (_ BitVec 64))
(declare-fun var530404 () (_ BitVec 64))
(declare-fun temp3934_11 () (_ BitVec 64))
(declare-fun var197581 () (_ BitVec 64))
(declare-fun temp3934_12 () (_ BitVec 64))
(declare-fun var197569 () (_ BitVec 64))
(declare-fun temp3934_13 () (_ BitVec 64))
(declare-fun temp3934_14 () (_ BitVec 64))
(declare-fun var197703 () (_ BitVec 64))
(declare-fun temp3934_15 () (_ BitVec 64))
(declare-fun temp3934_16 () (_ BitVec 64))
(declare-fun ARGNAME_input_NAMEEND_DIMSIZE
             ()
             (Array (_ BitVec 64) (_ BitVec 64)))
(declare-fun temp3934_17 () (_ BitVec 64))
(declare-fun temp3934_18 () (_ BitVec 64))
(declare-fun temp3934_19 () (_ BitVec 64))
(declare-fun temp3934_20 () (_ BitVec 64))
(declare-fun temp3934_21 () (_ BitVec 64))
(declare-fun temp3934_22 () (_ BitVec 64))
(declare-fun temp3934_23 () (_ BitVec 64))
(declare-fun temp3934_24 () (_ BitVec 64))
(declare-fun temp3934_25 () (_ BitVec 64))
(declare-fun temp3934_26 () (_ BitVec 64))
(declare-fun temp3934_27 () (_ BitVec 64))
(declare-fun temp3934_28 () (_ BitVec 64))
(declare-fun temp3934_29 () (_ BitVec 64))
(declare-fun temp3934_30 () (_ BitVec 64))
(declare-fun temp3934_31 () (_ BitVec 64))
(declare-fun temp3934_32 () (_ BitVec 64))
(declare-fun temp3934_34 () (_ BitVec 64))
(declare-fun temp3934_35 () (_ BitVec 64))
(declare-fun temp3934_33 () (_ BitVec 64))
(declare-fun temp3934_36 () (_ BitVec 64))
(declare-fun var197704 () (_ BitVec 64))
(declare-fun var197707 () (_ BitVec 64))
(declare-fun var984755 () (_ BitVec 64))
(declare-fun temp3934_39 () (_ BitVec 64))
(declare-fun temp3934_38 () (_ BitVec 64))
(declare-fun temp3934_40 () (_ BitVec 64))
(declare-fun var1119962 () (_ BitVec 64))
(declare-fun temp3934_41 () (_ BitVec 64))
(declare-fun var1902313 () (_ BitVec 64))
(declare-fun temp3934_42 () (_ BitVec 64))
(declare-fun temp3934_43 () (_ BitVec 64))
(declare-fun var1902381 () (_ BitVec 64))
(declare-fun temp3934_44 () (_ BitVec 64))
(declare-fun temp3934_45 () (_ BitVec 64))
(declare-fun var1902398 () (_ BitVec 64))
(declare-fun var1902311 () (_ BitVec 64))
(declare-fun var197749 () (_ BitVec 64))
(declare-fun var3737160 () (_ BitVec 64))
(declare-fun var3872740 () (_ BitVec 64))
(assert (= temp3934_1 #x0000000000000001))
(assert (= var138796 (bvand ARGNAME_pad_NAMEEND_LEN temp3934_1)))
(assert (= temp3934_2 #x0000000000000000))
(assert (= var138797
   (ite (= var138796 temp3934_2) #x0000000000000001 #x0000000000000000)))
(assert (= temp3934_3 #x0000000000000001))
(assert (= var138797 temp3934_3))
(assert (= temp3934_4 #x0000000000000001))
(assert (= var138809 (bvshl ARGNAME_input_NAMEEND_DIM temp3934_4)))
(assert (= var138810
   (ite (bvsgt ARGNAME_pad_NAMEEND_LEN var138809)
        #x0000000000000001
        #x0000000000000000)))
(assert (= temp3934_5 #x0000000000000000))
(assert (= var138810 temp3934_5))
(assert (= temp3934_6 #x0000000000000001))
(assert (= var197425 (bvand ARGNAME_pad_NAMEEND_LEN temp3934_6)))
(assert (= temp3934_7 #x0000000000000000))
(assert (= var197427
   (ite (= var197425 temp3934_7) #x0000000000000001 #x0000000000000000)))
(assert (= temp3934_8 #x0000000000000001))
(assert (= var197427 temp3934_8))
(assert (= temp3934_9 #x0000000000000001))
(assert (= var197483 (bvlshr ARGNAME_pad_NAMEEND_LEN temp3934_9)))
(assert (= var197485 (bvsub ARGNAME_input_NAMEEND_DIM var197483)))
(assert (= var197486
   (ite (bvslt ARGNAME_input_NAMEEND_DIM var197483)
        #x0000000000000001
        #x0000000000000000)))
(assert (= temp3934_10 #x0000000000000000))
(assert (= var197486 temp3934_10))
(assert (= var394824 var197485))
(assert (= var530404 var394824))
(assert (= temp3934_11 #x0000000000000001))
(assert (= var197581 temp3934_11))
(assert (= temp3934_12 #x0000000000000000))
(assert (= var197569
   (ite (= var197485 temp3934_12) #x0000000000000001 #x0000000000000000)))
(assert (= temp3934_13 #x0000000000000000))
(assert (= var197569 temp3934_13))
(assert (= temp3934_14 #x0000000000000000))
(assert (= var197703 temp3934_14))
(assert (= temp3934_15 #x0000000000000000))
(assert (= temp3934_16 temp3934_15))
(assert (= temp3934_17 (select ARGNAME_input_NAMEEND_DIMSIZE temp3934_16)))
(assert (= temp3934_18 #x0000000000000001))
(assert (= temp3934_19 temp3934_18))
(assert (= temp3934_20 (select ARGNAME_input_NAMEEND_DIMSIZE temp3934_19)))
(assert (= temp3934_21 #x0000000000000002))
(assert (= temp3934_22 temp3934_21))
(assert (= temp3934_23 (select ARGNAME_input_NAMEEND_DIMSIZE temp3934_22)))
(assert (= temp3934_24 #x0000000000000003))
(assert (= temp3934_25 temp3934_24))
(assert (= temp3934_26 (select ARGNAME_input_NAMEEND_DIMSIZE temp3934_25)))
(assert (= temp3934_27 #x0000000000000004))
(assert (= temp3934_28 temp3934_27))
(assert (= temp3934_29 (select ARGNAME_input_NAMEEND_DIMSIZE temp3934_28)))
(assert (= temp3934_30 #x0000000000000005))
(assert (= temp3934_31 temp3934_30))
(assert (= temp3934_32 (select ARGNAME_input_NAMEEND_DIMSIZE temp3934_31)))
(assert (= temp3934_34 var197703))
(assert (= temp3934_35 (select ARGNAME_input_NAMEEND_DIMSIZE temp3934_34)))
(assert (= temp3934_33 temp3934_35))
(assert (= temp3934_36 #x0000000000000001))
(assert (= var197704 (bvadd var197703 temp3934_36)))
(assert (= var197707
   (ite (= var197704 var197485) #x0000000000000001 #x0000000000000000)))
(assert (= var984755 var197483))
(assert (= temp3934_39 #x0000000000000000))
(assert (= temp3934_38 temp3934_39))
(assert (= temp3934_40 #x0000000000000000))
(assert (= var1119962 temp3934_40))
(assert (= temp3934_41 #x0000000000000000))
(assert (= var1902313 temp3934_41))
(assert (= temp3934_42 #x0000000000000000))
(assert (= var1902313 temp3934_42))
(assert (= temp3934_43 #x0000000000000000))
(assert (= var1902381 temp3934_43))
(assert (= temp3934_44 #x0000000000000000))
(assert (= var1902381 temp3934_44))
(assert (= temp3934_45 #x0000000000000000))
(assert (= var1902398 temp3934_45))
(assert (= var1902311 var1902398))
(assert (= var197749 var1902311))
(assert (= var3737160 var197485))
(assert (= var3872740 var3737160))
(model-add temp3934_1 () (_ BitVec 64) #x0000000000000001)
(model-add var138796
           ()
           (_ BitVec 64)
           (concat #b000000000000000000000000000000000000000000000000000000000000000
                   ((_ extract 0 0) ARGNAME_pad_NAMEEND_LEN)))
(model-add temp3934_2 () (_ BitVec 64) #x0000000000000000)
(model-add temp3934_3 () (_ BitVec 64) #x0000000000000001)
(model-add var138797 () (_ BitVec 64) #x0000000000000001)
(model-del k!0)
(model-add ARGNAME_pad_NAMEEND_LEN
           ()
           (_ BitVec 64)
           (concat #b000000000000000000000000000000000000000000000000000000000000000
                   k!0))
(model-del k!1)
(model-add k!0 () (_ BitVec 1) (ite k!1 #b0 (bvnot #b0)))





